121 181
713 156
64 33
363 79
977 340
733 168
642 806
339 973
612 546
47 440
754 407
392 240
184 464
909 185
484 802
796 769
950 322
450 84
131 544
622 658
705 321
302 659
735 56
379 532
777 904
115 834
625 616
118 78
311 642
43 568
615 460
338 970
607 889
149 353
332 513
145 626
921 250
462 642
805 416
98 882
110 131
952 863
256 681
822 986
872 925
403 77
891 578
489 528
847 771
765 961
966 751
704 111
183 648
466 130
444 35
156 243
70 129
53 28
896 940
233 463
